c CNF generator v0.9
p cnf 50 50
-42 4 -21 0
-38 46 35 0
-7 17 -18 0
-30 36 44 0
-48 -49 -1 0
-47 22 2 0
-35 -26 -20 0
17 38 22 0
37 43 -6 0
-35 24 -13 0
-27 34 -44 0
20 28 24 0
-12 50 -42 0
-43 42 -38 0
-3 40 48 0
-27 -15 12 0
-29 -26 -44 0
30 -48 -37 0
-47 47 37 0
-23 14 6 0
8 -45 50 0
37 -10 46 0
31 15 -7 0
-17 25 -19 0
32 -10 35 0
3 16 -31 0
49 -10 -2 0
-20 17 14 0
7 38 26 0
-32 -38 13 0
31 50 -28 0
-33 2 39 0
42 -12 29 0
36 -37 -38 0
47 -49 29 0
-20 -1 4 0
-32 9 -23 0
-41 -7 34 0
2 -14 -40 0
19 -9 43 0
-25 29 -49 0
-40 37 1 0
14 8 20 0
17 -36 -31 0
-24 -25 23 0
-25 -14 -8 0
-23 -40 13 0
-13 23 29 0
-24 -4 -25 0
-8 -31 -40 0
